0 0 0 0
0 1 1 0
0 2 0 0
0 3 0 0
0 4 0 11
0 5 1 5
0 6 0 6
0 7 0 5
0 8 0 13
0 9 0 5
0 10 0 6
0 11 1 6
0 12 0 12
0 13 2 20
0 14 0 12
0 15 0 14
0 16 0 19
0 17 0 16
0 18 0 13
0 19 0 15
0 20 2 18
0 21 1 18
0 22 0 20
0 23 0 17
0 24 0 15
0 25 0 20
0 26 0 22
0 27 0 24
0 28 0 29
0 29 0 25
0 30 0 28
0 31 0 32
